N = 25;
MinK = 3;
Capacity = 1000;

Scale = 10;
DistanceRoundingMode = Floor;
X = array1d(0..N, [40, 25, 22, 22, 20, 20, 18, 15, 15, 10, 10, 8, 8, 5, 5, 2, 0, 0, 44, 42, 42, 40, 40, 38, 38, 35]);
Y = array1d(0..N, [50, 85, 75, 85, 80, 85, 75, 75, 80, 35, 40, 40, 45, 35, 45, 40, 40, 45, 5, 10, 15, 5, 15, 5, 15, 5]);

Demands = array1d(1..N, [20, 30, 10, 40, 20, 20, 20, 10, 20, 30, 40, 20, 10, 10, 20, 20, 20, 20, 40, 10, 10, 40, 30, 10, 20]);

ServiceTimes = array1d(1..N, [10, 10, 10, 10, 10, 10, 10, 10, 10, 10, 10, 10, 10, 10, 10, 10, 10, 10, 10, 10, 10, 10, 10, 10, 10]);

TimeWindows = array2d(1..2, 0..N, [|
    0, 431,  30, 291, 674,  40, 393, 120, 397, 401, 535, 225,  43, 683,  35, 204, 204, 698, 306, 199, 494,  45, 383, 231, 609, 821 |
  960, 911, 510, 771, 734, 520, 502, 600, 457, 461, 622, 285, 523, 743, 366, 264, 425, 827, 483, 428, 699, 525, 486, 291, 872, 881
|]);
